Crypto/instances/samples/hf_n23/hf_n23_cnf08.sol
c DPLL-like Solver for max-min SAT
f file hf_n23_cnf08.cnf
p cnf 23 88
s max  88 6 -22 -5 -7 8 9 -10 23 -11 -12 -19 14 -16 13 20 -15 -1 4 -2 3 -21 -18 -17
s min  72 -6 22 5 7 -8 9 -10 -23 11 -12 -19 -14 -16 -13 -20 -15 1 4 2 3 -21 -18 -17